int: J = 4;
int: K = 3;
set of float: Ej = [20.0, 18.0, 5.0];
set of float: Aj = [0.5, 0.3, 1.0];
set of float: Gj = [0, 0, 0];
set of float: Fj = [5.0, 7.0, 6.0];
set of float: Vj = [0.1, 0.125, 0.15];
set of float: Pj_Inferior = [50.0, 80.0, 40.0];
set of float: Pj_Superior = [300.0, 200.0, 140.0];
set of float: Supj = [180.0, 100.0, 100.0];
set of float: Infj = [300.0, 150.0, 100.0];
set of float: Pj_inicial = [0.0, 0.0, 0.0];
set of float: Dk = [150.0, 500.0, 400.0];
set of float: Rk = [15.0, 50.0, 40.0];
